p cnf 50 15
x 1 -2 -4 6 -9 -10 -11 -13 -16 -17 -18 19 -23 24 -25 -26 -27 -32 33 -34 37 -39 -43 44 -45 -48 49 50 0
x -3 -4 -5 -7 -9 -10 -11 13 -14 18 22 25 26 -29 30 32 33 34 -39 40 42 44 -45 46 48 0
x -3 7 11 -12 13 14 15 16 -18 -19 -20 23 -24 26 27 -28 -31 -32 -34 -35 -37 38 39 40 -41 46 -49 -50 0
x -5 -7 8 -9 10 11 12 13 14 -16 18 20 23 -25 26 27 -29 -30 -31 34 35 -36 37 -38 41 44 -45 -46 -48 0
x 1 -2 -5 -6 7 -10 -11 -12 13 -14 -15 16 17 18 -21 -22 24 -26 -27 -28 -30 -33 -35 38 -42 43 -44 47 -48 -50 0
x -7 -10 11 15 18 19 21 22 -26 32 -35 37 -39 -40 -41 -42 -44 46 -50 0
x -3 -5 -6 7 8 -9 11 -13 14 15 17 -19 -20 26 -30 31 34 36 37 -39 40 -42 -44 45 47 -48 -49 0
x 1 7 10 -12 -14 15 -16 21 22 25 -27 29 30 31 32 -36 38 -39 40 -41 43 -44 45 47 49 0
x -1 4 6 8 -10 12 14 -15 -16 -21 -22 -25 28 29 31 -36 37 -38 -39 -40 46 48 -50 0
x 3 5 -6 8 -10 11 -13 14 16 -23 26 27 28 -32 34 35 -37 38 41 -46 -48 -49 0
x -1 4 -5 -6 8 10 11 12 -14 15 16 17 -20 22 -23 -24 -25 27 -28 -29 30 -32 -33 35 37 -38 -39 -42 -46 47 -49 -50 0
x -2 -4 -5 -7 -8 -10 12 13 -14 17 19 20 22 23 -24 -26 -27 29 30 32 -34 -35 37 -38 -42 -43 -45 -46 -49 0
x -1 -3 6 9 -15 18 19 -21 -22 -24 -26 -27 -31 33 -34 -35 36 -38 -40 42 44 -45 49 50 0
x -1 3 -4 6 -8 -11 12 -13 -15 -19 20 -21 22 -24 27 32 -33 35 -37 41 -43 -45 -48 50 0
x -2 -3 -4 -5 6 8 -13 14 15 -18 21 22 24 25 -28 -33 -34 37 40 44 -45 0
g -15